sets/C/cp-n38-k5.vrp
NAME : (null)
COMMENT : (null)
TYPE : CVRP
DIMENSION : 38
EDGE_WEIGHT_TYPE : EUC_2D
CAPACITY : 87
NODE_COORD_SECTION
 1  12  12
 2  13   3
 3  30   2
 4   6   8
 5  16  19
 6   8  11
 7  13  28
 8  25   5
 9  36  27
10  14  34
11   7   2
12  30  34
13  10  25
14  29  32
15   8  36
16  17  19
17  33  29
18  31  33
19  22   2
20  26  12
21  27  31
22  29  23
23  16   3
24  28  16
25  14  18
26   2   7
27  21  30
28  16  29
29   9   5
30  17   4
31  19  12
32   9  28
33  21  27
34  36  10
35  34  33
36  36  35
37  20  34
38   4  12
DEMAND_SECTION
 1   0
 2  17
 3   8
 4   3
 5   4
 6  12
 7  24
 8   3
 9   5
10  22
11  19
12  21
13  14
14  20
15  21
16   9
17   2
18  16
19  10
20   8
21  15
22   1
23  22
24  23
25  18
26  10
27   1
28   8
29  20
30   7
31  10
32  22
33  19
34  13
35  21
36  23
37  17
38  22
DEPOT_SECTION
 1
-1
EOF
