sets/C/cp-n38-k5.opt
Route #1: 30 19 2 7 18 29 22 1
Route #2: 12 31 14 6
Route #3: 23 17 13 20 15 4
Route #4: 5 37 25 10 28 3
Route #5: 33 8 35 34 11 16 21
Route #6: 27 9 36 26 32 24
cost 340
